c colouring generated by benchmark framework
p edge 450 5734
v 1 7
v 2 3
v 3 0
v 4 7
v 5 2
v 6 0
v 7 6
v 8 6
v 9 6
v 10 6
v 11 1
v 12 5
v 13 3
v 14 3
v 15 9
v 16 3
v 17 0
v 18 5
v 19 0
v 20 3
v 21 7
v 22 5
v 23 0
v 24 2
v 25 5
v 26 1
v 27 8
v 28 5
v 29 0
v 30 1
v 31 7
v 32 8
v 33 8
v 34 0
v 35 9
v 36 6
v 37 5
v 38 5
v 39 0
v 40 1
v 41 9
v 42 8
v 43 9
v 44 4
v 45 7
v 46 7
v 47 8
v 48 3
v 49 4
v 50 8
v 51 8
v 52 8
v 53 3
v 54 1
v 55 1
v 56 7
v 57 4
v 58 3
v 59 6
v 60 7
v 61 7
v 62 4
v 63 4
v 64 5
v 65 1
v 66 9
v 67 9
v 68 4
v 69 4
v 70 1
v 71 9
v 72 5
v 73 4
v 74 4
v 75 9
v 76 4
v 77 2
v 78 4
v 79 0
v 80 7
v 81 6
v 82 3
v 83 9
v 84 6
v 85 1
v 86 2
v 87 6
v 88 4
v 89 2
v 90 7
v 91 2
v 92 1
v 93 4
v 94 0
v 95 7
v 96 7
v 97 9
v 98 6
v 99 2
v 100 2
v 101 9
v 102 3
v 103 9
v 104 0
v 105 1
v 106 5
v 107 7
v 108 5
v 109 0
v 110 7
v 111 5
v 112 0
v 113 6
v 114 1
v 115 7
v 116 7
v 117 3
v 118 5
v 119 8
v 120 7
v 121 3
v 122 2
v 123 0
v 124 7
v 125 2
v 126 6
v 127 8
v 128 5
v 129 0
v 130 1
v 131 8
v 132 9
v 133 0
v 134 4
v 135 1
v 136 7
v 137 2
v 138 4
v 139 4
v 140 2
v 141 1
v 142 6
v 143 4
v 144 9
v 145 1
v 146 7
v 147 5
v 148 8
v 149 8
v 150 3
v 151 6
v 152 9
v 153 4
v 154 0
v 155 2
v 156 2
v 157 2
v 158 0
v 159 3
v 160 2
v 161 9
v 162 8
v 163 8
v 164 6
v 165 2
v 166 4
v 167 6
v 168 7
v 169 0
v 170 8
v 171 7
v 172 1
v 173 3
v 174 6
v 175 1
v 176 2
v 177 6
v 178 5
v 179 6
v 180 3
v 181 2
v 182 7
v 183 4
v 184 4
v 185 7
v 186 8
v 187 9
v 188 6
v 189 3
v 190 0
v 191 6
v 192 5
v 193 8
v 194 3
v 195 7
v 196 7
v 197 9
v 198 2
v 199 0
v 200 1
v 201 5
v 202 9
v 203 3
v 204 0
v 205 7
v 206 7
v 207 5
v 208 0
v 209 8
v 210 8
v 211 8
v 212 8
v 213 3
v 214 9
v 215 8
v 216 1
v 217 2
v 218 5
v 219 0
v 220 1
v 221 1
v 222 9
v 223 5
v 224 4
v 225 7
v 226 7
v 227 0
v 228 5
v 229 8
v 230 7
v 231 6
v 232 5
v 233 6
v 234 3
v 235 0
v 236 7
v 237 5
v 238 3
v 239 1
v 240 1
v 241 7
v 242 2
v 243 4
v 244 6
v 245 2
v 246 1
v 247 5
v 248 0
v 249 4
v 250 5
v 251 1
v 252 2
v 253 4
v 254 4
v 255 2
v 256 5
v 257 2
v 258 3
v 259 6
v 260 9
v 261 7
v 262 9
v 263 8
v 264 3
v 265 4
v 266 6
v 267 3
v 268 5
v 269 6
v 270 7
v 271 9
v 272 8
v 273 3
v 274 3
v 275 1
v 276 1
v 277 8
v 278 3
v 279 3
v 280 1
v 281 4
v 282 4
v 283 4
v 284 5
v 285 1
v 286 4
v 287 4
v 288 3
v 289 2
v 290 1
v 291 9
v 292 5
v 293 3
v 294 2
v 295 1
v 296 5
v 297 1
v 298 9
v 299 0
v 300 7
v 301 7
v 302 9
v 303 4
v 304 0
v 305 8
v 306 2
v 307 5
v 308 6
v 309 3
v 310 2
v 311 3
v 312 9
v 313 7
v 314 0
v 315 7
v 316 5
v 317 9
v 318 5
v 319 0
v 320 9
v 321 5
v 322 8
v 323 6
v 324 8
v 325 0
v 326 8
v 327 2
v 328 3
v 329 0
v 330 5
v 331 7
v 332 6
v 333 8
v 334 3
v 335 1
v 336 4
v 337 1
v 338 0
v 339 4
v 340 7
v 341 4
v 342 2
v 343 0
v 344 4
v 345 2
v 346 8
v 347 6
v 348 3
v 349 6
v 350 2
v 351 6
v 352 9
v 353 3
v 354 6
v 355 1
v 356 8
v 357 8
v 358 0
v 359 2
v 360 1
v 361 7
v 362 7
v 363 4
v 364 4
v 365 1
v 366 5
v 367 2
v 368 3
v 369 6
v 370 6
v 371 2
v 372 5
v 373 3
v 374 3
v 375 4
v 376 7
v 377 9
v 378 0
v 379 9
v 380 7
v 381 9
v 382 4
v 383 0
v 384 0
v 385 1
v 386 7
v 387 8
v 388 9
v 389 0
v 390 8
v 391 0
v 392 8
v 393 2
v 394 6
v 395 2
v 396 1
v 397 4
v 398 5
v 399 3
v 400 7
v 401 9
v 402 4
v 403 5
v 404 2
v 405 1
v 406 9
v 407 9
v 408 0
v 409 8
v 410 7
v 411 8
v 412 0
v 413 4
v 414 4
v 415 7
v 416 7
v 417 5
v 418 8
v 419 0
v 420 7
v 421 5
v 422 9
v 423 4
v 424 6
v 425 7
v 426 2
v 427 1
v 428 4
v 429 4
v 430 7
v 431 5
v 432 5
v 433 0
v 434 2
v 435 8
v 436 8
v 437 3
v 438 4
v 439 0
v 440 5
v 441 7
v 442 1
v 443 9
v 444 3
v 445 1
v 446 5
v 447 6
v 448 5
v 449 0
v 450 7
